Route 1: 0 25 24 62 53 63 72 58 51 67 88 10 0
Route 2: 0 41 79 98 99 57 64 1 34 26 85 61 0
Route 3: 0 42 94 73 18 13 91 74 77 60 43 50 0
Route 4: 0 45 59 8 87 14 49 100 82 54 0
Route 5: 0 84 56 70 17 9 16 22 83 27 0
Route 6: 0 28 39 21 11 15 31 76 86 0
Route 7: 0 23 92 29 90 4 75 30 0
Route 8: 0 40 44 48 95 38 35 52 96 89 65 97 0
Route 9: 0 68 5 33 36 80 46 66 32 55 93 0
Route 10: 0 7 47 3 71 37 20 0
Route 11: 0 6 78 12 19 81 69 2 0
